Version identifier: 22.1.1.0 | 2022-11-28 | 9160aff4d
CPXPARAM_ClockType                               1
CPXPARAM_Read_DataCheck                          1
CPXPARAM_Threads                                 1
CPXPARAM_TimeLimit                               7200
CPXPARAM_MIP_Tolerances_AbsMIPGap                0
CPXPARAM_MIP_Tolerances_MIPGap                   0
CPXPARAM_MIP_Tolerances_Integrality              0
Tried aggregator 2 times.
MIP Presolve eliminated 13959 rows and 21 columns.
MIP Presolve modified 27838 coefficients.
Aggregator did 13918 substitutions.
Reduced MIP has 141367 rows, 69566 columns, and 439594 nonzeros.
Reduced MIP has 69566 binaries, 0 generals, 0 SOSs, and 0 indicators.
Presolve time = 0.83 sec. (468.84 ticks)
Found incumbent of value -103496.000000 after 1.80 sec. (936.17 ticks)
Probing time = 0.13 sec. (36.14 ticks)
Tried aggregator 1 time.
Detecting symmetries...
MIP Presolve eliminated 0 rows and 1 columns.
Reduced MIP has 141367 rows, 69565 columns, and 439593 nonzeros.
Reduced MIP has 69565 binaries, 0 generals, 0 SOSs, and 0 indicators.
Presolve time = 0.71 sec. (340.43 ticks)
Probing time = 0.07 sec. (20.33 ticks)
Clique table members: 137090.
MIP emphasis: balance optimality and feasibility.
MIP search method: dynamic search.
Parallel mode: none, using 1 thread.
Root relaxation solution time = 2673.77 sec. (829379.79 ticks)

        Nodes                                         Cuts/
   Node  Left     Objective  IInf  Best Integer    Best Bound    ItCnt     Gap

*     0+    0                      -103496.0000    64932.0000           162.74%
      0     0    32449.3333 37175  -103496.0000    32449.3333   369123  131.35%
      0     0    27826.2857 29024  -103496.0000   Cuts: 10000   647146  126.89%
*     0+    0                        11902.0000    27826.2857           133.80%

Clique cuts applied:  2519
Implied bound cuts applied:  27
Zero-half cuts applied:  12489
Lift and project cuts applied:  2
Gomory fractional cuts applied:  5

Root node processing (before b&c):
  Real time             = 7200.15 sec. (2850095.51 ticks)
Sequential b&c:
  Real time             =    0.00 sec. (0.00 ticks)
                          ------------
Total (root+branch&cut) = 7200.15 sec. (2850095.51 ticks)
Solution is feasible.

---------------------
@@@ MIP_time_limit_feasible
>>> Benchmark mc2024_track1_160.cnf k 5 OPT 11902 TimeCost 7390.289014339447 TimeSolve 7224.326724529266 TimeRead 0.020775318145751953 TimeTrans 165.9415144920349
